docs/src/problems/asia/asia.td
c read Graph
c width = 3
c time = 7 ms
c width = 3
c time = 299919 ms
s td 5 4 8
b 1 4 8
b 2 2 3 4
b 3 2 4 5 6
b 4 4 5 7
b 5 1 7
1 2
2 3
3 4
4 5
