docs/src/problems/asia/asia.uai
MARKOV
8
 2 2 2 2 2 2 2 2
9
 2 0 6 
 2 4 5
 2 1 5
 2 4 6
 2 3 6
 2 3 4
 2 1 3
 2 3 7
 2 2 3

4
 368.08 0.0027168 0.0027168 368.08

4
 368.08 0.0027168 0.0027168 368.08

4
 368.08 0.0027168 0.0027168 368.08

4
 368.08 0.0027168 0.0027168 368.08

4
 368.08 0.0027168 0.0027168 368.08

4
 368.08 0.0027168 0.0027168 368.08

4
 368.08 0.0027168 0.0027168 368.08

4
 368.08 0.0027168 0.0027168 368.08

4
 368.08 0.0027168 0.0027168 368.08

